
Gurobi 9.1.2 (win64, Java) logging started Tue Nov  9 15:34:40 2021

Academic license - for non-commercial use only - expires 2022-10-30
Gurobi Optimizer version 9.1.2 build v9.1.2rc0 (win64)
Thread count: 6 physical cores, 12 logical processors, using up to 12 threads
Optimize a model with 450 rows, 45000 columns and 90000 nonzeros
Model fingerprint: 0x5c77dc32
Variable types: 0 continuous, 45000 integer (45000 binary)
Coefficient statistics:
  Matrix range     [1e+00, 1e+03]
  Objective range  [1e+00, 1e+03]
  Bounds range     [1e+00, 1e+00]
  RHS range        [1e+00, 1e+03]
Found heuristic solution: objective 85352.000000
Presolve removed 132 rows and 22977 columns
Presolve time: 0.63s
Presolved: 318 rows, 22023 columns, 44040 nonzeros
Found heuristic solution: objective 85789.000000
Variable types: 0 continuous, 22023 integer (22023 binary)
Presolve removed 0 rows and 4 columns
Presolved: 318 rows, 22019 columns, 44036 nonzeros


Root relaxation: objective 8.631712e+04, 198 iterations, 0.02 seconds

    Nodes    |    Current Node    |     Objective Bounds      |     Work
 Expl Unexpl |  Obj  Depth IntInf | Incumbent    BestBd   Gap | It/Node Time

     0     0 86317.1157    0    8 85789.0000 86317.1157  0.62%     -    0s
H    0     0                    85860.000000 86317.1157  0.53%     -    0s
     0     0     cutoff    0      85860.0000 85860.0000  0.00%     -    0s

Cutting planes:
  Cover: 6
  MIR: 3
  StrongCG: 4
  RLT: 1

Explored 1 nodes (199 simplex iterations) in 0.84 seconds
Thread count was 12 (of 12 available processors)

Solution count 3: 85860 85789 85352 

Optimal solution found (tolerance 1.00e-04)
Best objective 8.586000000000e+04, best bound 8.586000000000e+04, gap 0.0000%

Gurobi 9.1.2 (win64, Java) logging started Tue Nov  9 15:35:41 2021

Academic license - for non-commercial use only - expires 2022-10-30
Gurobi Optimizer version 9.1.2 build v9.1.2rc0 (win64)
Thread count: 6 physical cores, 12 logical processors, using up to 12 threads
Optimize a model with 450 rows, 45000 columns and 90000 nonzeros
Model fingerprint: 0x5c77dc32
Variable types: 0 continuous, 45000 integer (45000 binary)
Coefficient statistics:
  Matrix range     [1e+00, 1e+03]
  Objective range  [1e+00, 1e+03]
  Bounds range     [1e+00, 1e+00]
  RHS range        [1e+00, 1e+03]
Found heuristic solution: objective 85352.000000
Presolve removed 132 rows and 22977 columns
Presolve time: 0.61s
Presolved: 318 rows, 22023 columns, 44040 nonzeros
Found heuristic solution: objective 85789.000000
Variable types: 0 continuous, 22023 integer (22023 binary)
Presolve removed 0 rows and 4 columns
Presolved: 318 rows, 22019 columns, 44036 nonzeros


Root relaxation: objective 8.631712e+04, 198 iterations, 0.02 seconds

    Nodes    |    Current Node    |     Objective Bounds      |     Work
 Expl Unexpl |  Obj  Depth IntInf | Incumbent    BestBd   Gap | It/Node Time

     0     0 86317.1157    0    8 85789.0000 86317.1157  0.62%     -    0s
H    0     0                    85860.000000 86317.1157  0.53%     -    0s
     0     0     cutoff    0      85860.0000 85860.0000  0.00%     -    0s

Cutting planes:
  Cover: 6
  MIR: 3
  StrongCG: 4
  RLT: 1

Explored 1 nodes (199 simplex iterations) in 0.79 seconds
Thread count was 12 (of 12 available processors)

Solution count 3: 85860 85789 85352 

Optimal solution found (tolerance 1.00e-04)
Best objective 8.586000000000e+04, best bound 8.586000000000e+04, gap 0.0000%

Gurobi 9.1.2 (win64, Java) logging started Tue Nov  9 15:36:28 2021

Academic license - for non-commercial use only - expires 2022-10-30
Gurobi Optimizer version 9.1.2 build v9.1.2rc0 (win64)
Thread count: 6 physical cores, 12 logical processors, using up to 12 threads
Optimize a model with 450 rows, 45000 columns and 90000 nonzeros
Model fingerprint: 0x5c77dc32
Variable types: 0 continuous, 45000 integer (45000 binary)
Coefficient statistics:
  Matrix range     [1e+00, 1e+03]
  Objective range  [1e+00, 1e+03]
  Bounds range     [1e+00, 1e+00]
  RHS range        [1e+00, 1e+03]
Found heuristic solution: objective 85352.000000
Presolve removed 132 rows and 22977 columns
Presolve time: 0.63s
Presolved: 318 rows, 22023 columns, 44040 nonzeros
Found heuristic solution: objective 85789.000000
Variable types: 0 continuous, 22023 integer (22023 binary)
Presolve removed 0 rows and 4 columns
Presolved: 318 rows, 22019 columns, 44036 nonzeros


Root relaxation: objective 8.631712e+04, 198 iterations, 0.02 seconds

    Nodes    |    Current Node    |     Objective Bounds      |     Work
 Expl Unexpl |  Obj  Depth IntInf | Incumbent    BestBd   Gap | It/Node Time

     0     0 86317.1157    0    8 85789.0000 86317.1157  0.62%     -    0s
H    0     0                    85860.000000 86317.1157  0.53%     -    0s
     0     0     cutoff    0      85860.0000 85860.0000  0.00%     -    0s

Cutting planes:
  Cover: 6
  MIR: 3
  StrongCG: 4
  RLT: 1

Explored 1 nodes (199 simplex iterations) in 0.83 seconds
Thread count was 12 (of 12 available processors)

Solution count 3: 85860 85789 85352 

Optimal solution found (tolerance 1.00e-04)
Best objective 8.586000000000e+04, best bound 8.586000000000e+04, gap 0.0000%

Gurobi 9.1.2 (win64, Java) logging started Tue Nov  9 15:36:58 2021

Academic license - for non-commercial use only - expires 2022-10-30
Gurobi Optimizer version 9.1.2 build v9.1.2rc0 (win64)
Thread count: 6 physical cores, 12 logical processors, using up to 12 threads
Optimize a model with 450 rows, 45000 columns and 90000 nonzeros
Model fingerprint: 0x5c77dc32
Variable types: 0 continuous, 45000 integer (45000 binary)
Coefficient statistics:
  Matrix range     [1e+00, 1e+03]
  Objective range  [1e+00, 1e+03]
  Bounds range     [1e+00, 1e+00]
  RHS range        [1e+00, 1e+03]
Found heuristic solution: objective 85352.000000
Presolve removed 132 rows and 22977 columns
Presolve time: 0.61s
Presolved: 318 rows, 22023 columns, 44040 nonzeros
Found heuristic solution: objective 85789.000000
Variable types: 0 continuous, 22023 integer (22023 binary)
Presolve removed 0 rows and 4 columns
Presolved: 318 rows, 22019 columns, 44036 nonzeros


Root relaxation: objective 8.631712e+04, 198 iterations, 0.02 seconds

    Nodes    |    Current Node    |     Objective Bounds      |     Work
 Expl Unexpl |  Obj  Depth IntInf | Incumbent    BestBd   Gap | It/Node Time

     0     0 86317.1157    0    8 85789.0000 86317.1157  0.62%     -    0s
H    0     0                    85860.000000 86317.1157  0.53%     -    0s
     0     0     cutoff    0      85860.0000 85860.0000  0.00%     -    0s

Cutting planes:
  Cover: 6
  MIR: 3
  StrongCG: 4
  RLT: 1

Explored 1 nodes (199 simplex iterations) in 0.81 seconds
Thread count was 12 (of 12 available processors)

Solution count 3: 85860 85789 85352 

Optimal solution found (tolerance 1.00e-04)
Best objective 8.586000000000e+04, best bound 8.586000000000e+04, gap 0.0000%
